NAME : a280
COMMENT : Tour length 3206
TYPE : TOUR
DIMENSION : 280
TOUR_SECTION
1
2
280
3
279
278
4
5
6
9
7
8
10
11
12
13
14
24
23
25
22
26
27
28
29
154
155
153
156
152
151
178
150
149
141
148
139
140
269
270
134
135
136
268
267
137
138
266
265
264
263
262
261
260
259
258
257
254
253
208
209
252
255
256
249
248
242
243
245
246
231
238
239
240
241
244
247
250
251
230
229
228
227
226
225
224
223
222
221
220
219
218
217
216
215
214
213
212
211
210
207
206
205
204
203
202
199
145
146
147
142
143
144
200
201
198
197
196
195
194
192
191
188
189
190
186
187
185
184
183
182
175
160
159
158
157
119
120
121
122
123
124
46
47
48
49
50
51
52
53
54
55
69
68
58
57
56
45
44
59
63
62
116
86
92
91
90
109
89
79
80
81
82
83
88
112
111
110
108
172
171
170
169
168
167
166
165
164
163
162
161
174
173
107
106
105
104
103
102
101
100
99
96
97
98
93
94
95
78
77
76
75
74
73
72
71
70
67
66
64
65
85
84
87
113
114
115
117
118
61
60
43
42
41
40
39
38
37
36
35
34
33
32
31
30
125
126
127
128
129
131
130
21
20
19
132
133
18
17
16
271
272
273
274
275
276
277
15
177
176
181
180
179
193
234
233
232
237
236
235
1
-1
EOF